words_hard_train/7498.qaiger
aag 76 16 0 1 60
2
4
10
18
24
34
44
52
62
70
80
88
94
102
112
120
153
6 2 5
8 7 5
12 8 11
14 9 10
16 13 15
20 4 18
22 21 7
26 3 24
28 5 19
30 26 29
32 22 31
36 33 34
38 16 37
40 32 35
42 39 41
46 15 45
48 14 44
50 47 49
54 51 52
56 43 55
58 50 53
60 57 59
64 49 63
66 48 62
68 65 67
72 68 71
74 60 73
76 69 70
78 75 77
82 67 81
84 66 80
86 83 85
90 87 88
92 78 91
96 85 95
98 84 94
100 97 99
104 100 103
106 93 105
108 86 89
110 106 109
114 98 113
116 99 112
118 115 117
122 118 121
124 111 123
126 101 102
128 124 127
130 119 120
132 129 131
134 24 102
136 34 88
138 52 121
140 136 138
142 134 140
144 18 70
146 142 144
148 133 147
150 132 146
152 149 151
i0 1 x2[0]
i1 1 x2[1]
i2 1 x2[2]
i3 2 y2[1]
i4 2 y2[0]
i5 2 y2[2]
i6 1 x2[3]
i7 2 y2[3]
i8 1 x2[4]
i9 2 y2[4]
i10 1 x2[5]
i11 2 y2[5]
i12 1 x2[6]
i13 2 y2[6]
i14 1 x2[7]
i15 2 y2[7]
o0 bv[0]
c
simplified
  <=
    add
      1
      2 y2
    add
      1 x2
      unary minus
        125
