words_hard_train/7498.qaiger.qdimacs
p cnf 76 181
a 1 2 5 40 47 22 56 31 0
e 3 4 6 7 8 9 10 11 12 13 14 15 16 17 18 19 20 21 23 24 25 26 27 28 29 30 32 33 34 35 36 37 38 39 41 42 43 44 45 46 48 49 50 51 52 53 54 55 57 58 59 60 61 62 63 64 65 66 67 68 69 70 71 72 73 74 75 76 0
-1 2 3 0
1 -3 0
-2 -3 0
3 2 4 0
-3 -4 0
-2 -4 0
-4 5 6 0
4 -6 0
-5 -6 0
4 -5 7 0
-4 -7 0
5 -7 0
6 7 8 0
-6 -8 0
-7 -8 0
-2 -9 10 0
2 -10 0
9 -10 0
10 3 11 0
-10 -11 0
-3 -11 0
1 -12 13 0
-1 -13 0
12 -13 0
2 9 14 0
-2 -14 0
-9 -14 0
-13 14 15 0
13 -15 0
-14 -15 0
-11 15 16 0
11 -16 0
-15 -16 0
16 -17 18 0
-16 -18 0
17 -18 0
-8 18 19 0
8 -19 0
-18 -19 0
-16 17 20 0
16 -20 0
-17 -20 0
19 20 21 0
-19 -21 0
-20 -21 0
7 22 23 0
-7 -23 0
-22 -23 0
-7 -22 24 0
7 -24 0
22 -24 0
23 24 25 0
-23 -25 0
-24 -25 0
25 -26 27 0
-25 -27 0
26 -27 0
21 27 28 0
-21 -28 0
-27 -28 0
-25 26 29 0
25 -29 0
-26 -29 0
28 29 30 0
-28 -30 0
-29 -30 0
24 31 32 0
-24 -32 0
-31 -32 0
-24 -31 33 0
24 -33 0
31 -33 0
32 33 34 0
-32 -34 0
-33 -34 0
-34 35 36 0
34 -36 0
-35 -36 0
-30 36 37 0
30 -37 0
-36 -37 0
34 -35 38 0
-34 -38 0
35 -38 0
37 38 39 0
-37 -39 0
-38 -39 0
33 40 41 0
-33 -41 0
-40 -41 0
-33 -40 42 0
33 -42 0
40 -42 0
41 42 43 0
-41 -43 0
-42 -43 0
43 -44 45 0
-43 -45 0
44 -45 0
-39 45 46 0
39 -46 0
-45 -46 0
42 47 48 0
-42 -48 0
-47 -48 0
-42 -47 49 0
42 -49 0
47 -49 0
48 49 50 0
-48 -50 0
-49 -50 0
-50 51 52 0
50 -52 0
-51 -52 0
46 52 53 0
-46 -53 0
-52 -53 0
-43 44 54 0
43 -54 0
-44 -54 0
-53 54 55 0
53 -55 0
-54 -55 0
-49 56 57 0
49 -57 0
-56 -57 0
49 -56 58 0
-49 -58 0
56 -58 0
57 58 59 0
-57 -59 0
-58 -59 0
-59 60 61 0
59 -61 0
-60 -61 0
55 61 62 0
-55 -62 0
-61 -62 0
50 -51 63 0
-50 -63 0
51 -63 0
-62 63 64 0
62 -64 0
-63 -64 0
59 -60 65 0
-59 -65 0
60 -65 0
64 65 66 0
-64 -66 0
-65 -66 0
-12 -51 67 0
12 -67 0
51 -67 0
-17 -44 68 0
17 -68 0
44 -68 0
-26 60 69 0
26 -69 0
-60 -69 0
-68 -69 70 0
68 -70 0
69 -70 0
-67 -70 71 0
67 -71 0
70 -71 0
-9 -35 72 0
9 -72 0
35 -72 0
-71 -72 73 0
71 -73 0
72 -73 0
66 73 74 0
-66 -74 0
-73 -74 0
-66 -73 75 0
66 -75 0
73 -75 0
74 75 76 0
-74 -76 0
-75 -76 0
-76 0
